p tw 144 23761 2 
1 3 
1 4 
1 5 
1 6 
1 7 
1 8 
1 9 
1 10 
1 11 
1 12 
1 13 
1 22 
1 25 
1 33 
1 37 
1 39 
1 49 
1 59 
1 61 
1 66 
1 73 
1 80 
1 85 
1 88 
1 97 
1 103 
1 109 
1 113 
1 121 
1 122 
1 133 
1 144 
2 3 
2 4 
2 5 
2 6 
2 7 
2 8 
2 9 
2 10 
2 11 
2 12 
2 14 
2 16 
2 26 
2 34 
2 38 
2 42 
2 50 
2 56 
2 62 
2 67 
2 74 
2 77 
2 86 
2 95 
2 98 
2 105 
2 109 
2 110 
2 122 
2 132 
2 134 
2 135 
3 4 
3 5 
3 6 
3 7 
3 8 
3 9 
3 10 
3 11 
3 12 
3 13 
3 15 
3 26 
3 27 
3 39 
3 46 
3 51 
3 53 
3 63 
3 69 
3 75 
3 79 
3 87 
3 92 
3 99 
3 100 
3 111 
3 120 
3 123 
3 131 
3 135 
3 138 
4 5 
4 6 
4 7 
4 8 
4 9 
4 10 
4 11 
4 12 
4 16 
4 21 
4 28 
4 36 
4 40 
4 41 
4 49 
4 52 
4 64 
4 68 
4 74 
4 76 
4 87 
4 88 
4 100 
4 102 
4 112 
4 119 
4 124 
4 130 
4 136 
4 139 
5 6 
5 7 
5 8 
5 9 
5 10 
5 11 
5 12 
5 17 
5 20 
5 29 
5 30 
5 41 
5 48 
5 53 
5 58 
5 65 
5 71 
5 77 
5 81 
5 86 
5 89 
5 99 
5 101 
5 113 
5 115 
5 124 
5 125 
5 133 
5 137 
6 7 
6 8 
6 9 
6 10 
6 11 
6 12 
6 17 
6 18 
6 28 
6 30 
6 42 
6 47 
6 50 
6 54 
6 63 
6 66 
6 78 
6 84 
6 85 
6 90 
6 102 
6 106 
6 114 
6 116 
6 126 
6 127 
6 138 
6 141 
7 8 
7 9 
7 10 
7 11 
7 12 
7 19 
7 24 
7 29 
7 31 
7 40 
7 43 
7 51 
7 55 
7 62 
7 67 
7 73 
7 79 
7 91 
7 94 
7 103 
7 107 
7 114 
7 115 
7 127 
7 129 
7 139 
7 140 
8 9 
8 10 
8 11 
8 12 
8 19 
8 20 
8 27 
8 32 
8 37 
8 44 
8 56 
8 57 
8 68 
8 72 
8 80 
8 83 
8 89 
8 92 
8 98 
8 104 
8 112 
8 116 
8 126 
8 128 
8 140 
8 142 
9 10 
9 11 
9 12 
9 21 
9 23 
9 31 
9 33 
9 38 
9 45 
9 57 
9 60 
9 64 
9 69 
9 81 
9 82 
9 90 
9 93 
9 104 
9 105 
9 111 
9 117 
9 121 
9 129 
9 137 
9 141 
10 11 
10 12 
10 14 
10 22 
10 32 
10 34 
10 43 
10 46 
10 54 
10 58 
10 65 
10 70 
10 76 
10 82 
10 94 
10 96 
10 97 
10 106 
10 117 
10 118 
10 123 
10 130 
10 142 
10 143 
11 12 
11 15 
11 23 
11 25 
11 35 
11 44 
11 47 
11 55 
11 59 
11 70 
11 71 
11 78 
11 83 
11 93 
11 95 
11 107 
11 108 
11 110 
11 119 
11 125 
11 131 
11 136 
11 143 
12 18 
12 24 
12 35 
12 36 
12 45 
12 48 
12 52 
12 60 
12 61 
12 72 
12 75 
12 84 
12 91 
12 96 
12 101 
12 108 
12 118 
12 120 
12 128 
12 132 
12 134 
12 144 
13 14 
13 15 
13 16 
13 17 
13 18 
13 19 
13 20 
13 21 
13 22 
13 23 
13 24 
13 25 
13 26 
13 37 
13 46 
13 49 
13 53 
13 61 
13 69 
13 73 
13 79 
13 85 
13 92 
13 97 
13 100 
13 109 
13 120 
13 121 
13 131 
13 133 
13 138 
14 15 
14 16 
14 17 
14 18 
14 19 
14 20 
14 21 
14 22 
14 23 
14 24 
14 26 
14 32 
14 38 
14 43 
14 50 
14 54 
14 62 
14 65 
14 74 
14 76 
14 86 
14 96 
14 97 
14 98 
14 110 
14 117 
14 122 
14 123 
14 134 
14 143 
15 16 
15 17 
15 18 
15 19 
15 20 
15 21 
15 22 
15 23 
15 24 
15 25 
15 27 
15 39 
15 44 
15 51 
15 55 
15 63 
15 70 
15 75 
15 78 
15 87 
15 93 
15 99 
15 108 
15 110 
15 111 
15 123 
15 125 
15 135 
15 136 
16 17 
16 18 
16 19 
16 20 
16 21 
16 22 
16 23 
16 24 
16 28 
16 34 
16 40 
16 42 
16 52 
16 56 
16 64 
16 67 
16 76 
16 77 
16 88 
16 95 
16 100 
16 105 
16 109 
16 112 
16 124 
16 132 
16 135 
16 136 
17 18 
17 19 
17 20 
17 21 
17 22 
17 23 
17 24 
17 28 
17 29 
17 41 
17 47 
17 50 
17 53 
17 63 
17 65 
17 77 
17 84 
17 85 
17 89 
17 101 
17 106 
17 113 
17 116 
17 125 
17 127 
17 137 
17 141 
18 19 
18 20 
18 21 
18 22 
18 23 
18 24 
18 30 
18 35 
18 42 
18 45 
18 52 
18 54 
18 61 
18 66 
18 75 
18 78 
18 90 
18 91 
18 101 
18 102 
18 114 
18 118 
18 126 
18 128 
18 134 
18 138 
19 20 
19 21 
19 22 
19 23 
19 24 
19 27 
19 31 
19 37 
19 43 
19 55 
19 57 
19 67 
19 72 
19 79 
19 83 
19 89 
19 91 
19 98 
19 103 
19 112 
19 115 
19 126 
19 127 
19 139 
19 142 
20 21 
20 22 
20 23 
20 24 
20 30 
20 32 
20 44 
20 48 
20 56 
20 58 
20 68 
20 71 
20 80 
20 81 
20 86 
20 92 
20 99 
20 104 
20 115 
20 116 
20 124 
20 128 
20 133 
20 140 
21 22 
21 23 
21 24 
21 33 
21 36 
21 41 
21 45 
21 49 
21 57 
21 68 
21 69 
21 74 
21 81 
21 87 
21 93 
21 102 
21 105 
21 117 
21 119 
21 129 
21 130 
21 139 
21 141 
22 23 
22 24 
22 33 
22 34 
22 39 
22 46 
22 58 
22 59 
22 66 
22 70 
22 80 
22 82 
22 88 
22 94 
22 103 
22 106 
22 113 
22 118 
22 122 
22 130 
22 142 
22 144 
23 24 
23 31 
23 35 
23 38 
23 47 
23 59 
23 60 
23 64 
23 71 
23 82 
23 83 
23 90 
23 95 
23 104 
23 107 
23 111 
23 119 
23 121 
23 131 
23 137 
23 143 
24 29 
24 36 
24 40 
24 48 
24 51 
24 60 
24 62 
24 72 
24 73 
24 84 
24 94 
24 96 
24 107 
24 108 
24 114 
24 120 
24 129 
24 132 
24 140 
24 144 
25 26 
25 27 
25 28 
25 29 
25 30 
25 31 
25 32 
25 33 
25 34 
25 35 
25 36 
25 37 
25 44 
25 49 
25 55 
25 61 
25 70 
25 73 
25 78 
25 85 
25 93 
25 97 
25 108 
25 109 
25 110 
25 121 
25 125 
25 133 
25 136 
26 27 
26 28 
26 29 
26 30 
26 31 
26 32 
26 33 
26 34 
26 35 
26 36 
26 38 
26 46 
26 50 
26 53 
26 62 
26 69 
26 74 
26 79 
26 86 
26 92 
26 98 
26 100 
26 110 
26 120 
26 122 
26 131 
26 134 
26 138 
27 28 
27 29 
27 30 
27 31 
27 32 
27 33 
27 34 
27 35 
27 36 
27 37 
27 39 
27 51 
27 57 
27 63 
27 72 
27 75 
27 83 
27 87 
27 89 
27 98 
27 99 
27 111 
27 112 
27 123 
27 126 
27 135 
27 142 
28 29 
28 30 
28 31 
28 32 
28 33 
28 34 
28 35 
28 36 
28 40 
28 47 
28 50 
28 52 
28 63 
28 64 
28 76 
28 84 
28 85 
28 88 
28 100 
28 106 
28 112 
28 116 
28 124 
28 127 
28 136 
28 141 
29 30 
29 31 
29 32 
29 33 
29 34 
29 35 
29 36 
29 40 
29 41 
29 51 
29 53 
29 62 
29 65 
29 73 
29 77 
29 89 
29 94 
29 101 
29 107 
29 113 
29 114 
29 125 
29 129 
29 137 
29 140 
30 31 
30 32 
30 33 
30 34 
30 35 
30 36 
30 42 
30 48 
30 54 
30 58 
30 66 
30 71 
30 78 
30 81 
30 86 
30 90 
30 99 
30 102 
30 114 
30 115 
30 124 
30 126 
30 133 
30 138 
31 32 
31 33 
31 34 
31 35 
31 36 
31 38 
31 43 
31 55 
31 60 
31 64 
31 67 
31 79 
31 82 
31 90 
31 91 
31 103 
31 104 
31 111 
31 115 
31 121 
31 127 
31 137 
31 139 
32 33 
32 34 
32 35 
32 36 
32 43 
32 44 
32 54 
32 56 
32 65 
32 68 
32 76 
32 80 
32 92 
32 96 
32 97 
32 104 
32 116 
32 117 
32 123 
32 128 
32 140 
32 143 
33 34 
33 35 
33 36 
33 39 
33 45 
33 57 
33 59 
33 66 
33 69 
33 80 
33 81 
33 88 
33 93 
33 103 
33 105 
33 113 
33 117 
33 122 
33 129 
33 141 
33 144 
34 35 
34 36 
34 42 
34 46 
34 56 
34 58 
34 67 
34 70 
34 77 
34 82 
34 94 
34 95 
34 105 
34 106 
34 109 
34 118 
34 130 
34 132 
34 135 
34 142 
35 36 
35 45 
35 47 
35 52 
35 59 
35 61 
35 71 
35 75 
35 83 
35 91 
35 95 
35 101 
35 107 
35 118 
35 119 
35 128 
35 131 
35 134 
35 143 
36 41 
36 48 
36 49 
36 60 
36 68 
36 72 
36 74 
36 84 
36 87 
36 96 
36 102 
36 108 
36 119 
36 120 
36 130 
36 132 
36 139 
36 144 
37 38 
37 39 
37 40 
37 41 
37 42 
37 43 
37 44 
37 45 
37 46 
37 47 
37 48 
37 49 
37 57 
37 61 
37 72 
37 73 
37 83 
37 85 
37 89 
37 97 
37 98 
37 109 
37 112 
37 121 
37 126 
37 133 
37 142 
38 39 
38 40 
38 41 
38 42 
38 43 
38 44 
38 45 
38 46 
38 47 
38 48 
38 50 
38 60 
38 62 
38 64 
38 74 
38 82 
38 86 
38 90 
38 98 
38 104 
38 110 
38 111 
38 121 
38 122 
38 134 
38 137 
39 40 
39 41 
39 42 
39 43 
39 44 
39 45 
39 46 
39 47 
39 48 
39 51 
39 59 
39 63 
39 66 
39 75 
39 80 
39 87 
39 88 
39 99 
39 103 
39 111 
39 113 
39 122 
39 123 
39 135 
39 144 
40 41 
40 42 
40 43 
40 44 
40 45 
40 46 
40 47 
40 48 
40 51 
40 52 
40 62 
40 64 
40 73 
40 76 
40 88 
40 94 
40 100 
40 107 
40 112 
40 114 
40 124 
40 129 
40 136 
40 140 
41 42 
41 43 
41 44 
41 45 
41 46 
41 47 
41 48 
41 49 
41 53 
41 65 
41 68 
41 74 
41 77 
41 87 
41 89 
41 101 
41 102 
41 113 
41 119 
41 125 
41 130 
41 137 
41 139 
42 43 
42 44 
42 45 
42 46 
42 47 
42 48 
42 54 
42 56 
42 66 
42 67 
42 77 
42 78 
42 90 
42 95 
42 102 
42 105 
42 109 
42 114 
42 126 
42 132 
42 135 
42 138 
43 44 
43 45 
43 46 
43 47 
43 48 
43 54 
43 55 
43 65 
43 67 
43 76 
43 79 
43 91 
43 96 
43 97 
43 103 
43 115 
43 117 
43 123 
43 127 
43 139 
43 143 
44 45 
44 46 
44 47 
44 48 
44 55 
44 56 
44 68 
44 70 
44 78 
44 80 
44 92 
44 93 
44 104 
44 108 
44 110 
44 116 
44 125 
44 128 
44 136 
44 140 
45 46 
45 47 
45 48 
45 52 
45 57 
45 61 
45 69 
45 75 
45 81 
45 91 
45 93 
45 101 
45 105 
45 117 
45 118 
45 128 
45 129 
45 134 
45 141 
46 47 
46 48 
46 53 
46 58 
46 69 
46 70 
46 79 
46 82 
46 92 
46 94 
46 100 
46 106 
46 118 
46 120 
46 130 
46 131 
46 138 
46 142 
47 48 
47 50 
47 59 
47 63 
47 71 
47 83 
47 84 
47 85 
47 95 
47 106 
47 107 
47 116 
47 119 
47 127 
47 131 
47 141 
47 143 
48 58 
48 60 
48 71 
48 72 
48 81 
48 84 
48 86 
48 96 
48 99 
48 108 
48 115 
48 120 
48 124 
48 132 
48 133 
48 144 
49 50 
49 51 
49 52 
49 53 
49 54 
49 55 
49 56 
49 57 
49 58 
49 59 
49 60 
49 61 
49 68 
49 73 
49 74 
49 85 
49 87 
49 97 
49 102 
49 109 
49 119 
49 121 
49 130 
49 133 
49 139 
50 51 
50 52 
50 53 
50 54 
50 55 
50 56 
50 57 
50 58 
50 59 
50 60 
50 62 
50 63 
50 74 
50 84 
50 85 
50 86 
50 98 
50 106 
50 110 
50 116 
50 122 
50 127 
50 134 
50 141 
51 52 
51 53 
51 54 
51 55 
51 56 
51 57 
51 58 
51 59 
51 60 
51 62 
51 63 
51 73 
51 75 
51 87 
51 94 
51 99 
51 107 
51 111 
51 114 
51 123 
51 129 
51 135 
51 140 
52 53 
52 54 
52 55 
52 56 
52 57 
52 58 
52 59 
52 60 
52 61 
52 64 
52 75 
52 76 
52 88 
52 91 
52 100 
52 101 
52 112 
52 118 
52 124 
52 128 
52 134 
52 136 
53 54 
53 55 
53 56 
53 57 
53 58 
53 59 
53 60 
53 65 
53 69 
53 77 
53 79 
53 89 
53 92 
53 100 
53 101 
53 113 
53 120 
53 125 
53 131 
53 137 
53 138 
54 55 
54 56 
54 57 
54 58 
54 59 
54 60 
54 65 
54 66 
54 76 
54 78 
54 90 
54 96 
54 97 
54 102 
54 114 
54 117 
54 123 
54 126 
54 138 
54 143 
55 56 
55 57 
55 58 
55 59 
55 60 
55 67 
55 70 
55 78 
55 79 
55 91 
55 93 
55 103 
55 108 
55 110 
55 115 
55 125 
55 127 
55 136 
55 139 
56 57 
56 58 
56 59 
56 60 
56 67 
56 68 
56 77 
56 80 
56 92 
56 95 
56 104 
56 105 
56 109 
56 116 
56 128 
56 132 
56 135 
56 140 
57 58 
57 59 
57 60 
57 69 
57 72 
57 81 
57 83 
57 89 
57 93 
57 98 
57 105 
57 112 
57 117 
57 126 
57 129 
57 141 
57 142 
58 59 
58 60 
58 70 
58 71 
58 81 
58 82 
58 86 
58 94 
58 99 
58 106 
58 115 
58 118 
58 124 
58 130 
58 133 
58 142 
59 60 
59 66 
59 71 
59 80 
59 83 
59 88 
59 95 
59 103 
59 107 
59 113 
59 119 
59 122 
59 131 
59 143 
59 144 
60 64 
60 72 
60 82 
60 84 
60 90 
60 96 
60 104 
60 108 
60 111 
60 120 
60 121 
60 132 
60 137 
60 144 
61 62 
61 63 
61 64 
61 65 
61 66 
61 67 
61 68 
61 69 
61 70 
61 71 
61 72 
61 73 
61 75 
61 85 
61 91 
61 97 
61 101 
61 109 
61 118 
61 121 
61 128 
61 133 
61 134 
62 63 
62 64 
62 65 
62 66 
62 67 
62 68 
62 69 
62 70 
62 71 
62 72 
62 73 
62 74 
62 86 
62 94 
62 98 
62 107 
62 110 
62 114 
62 122 
62 129 
62 134 
62 140 
63 64 
63 65 
63 66 
63 67 
63 68 
63 69 
63 70 
63 71 
63 72 
63 75 
63 84 
63 85 
63 87 
63 99 
63 106 
63 111 
63 116 
63 123 
63 127 
63 135 
63 141 
64 65 
64 66 
64 67 
64 68 
64 69 
64 70 
64 71 
64 72 
64 76 
64 82 
64 88 
64 90 
64 100 
64 104 
64 111 
64 112 
64 121 
64 124 
64 136 
64 137 
65 66 
65 67 
65 68 
65 69 
65 70 
65 71 
65 72 
65 76 
65 77 
65 89 
65 96 
65 97 
65 101 
65 113 
65 117 
65 123 
65 125 
65 137 
65 143 
66 67 
66 68 
66 69 
66 70 
66 71 
66 72 
66 78 
66 80 
66 88 
66 90 
66 102 
66 103 
66 113 
66 114 
66 122 
66 126 
66 138 
66 144 
67 68 
67 69 
67 70 
67 71 
67 72 
67 77 
67 79 
67 91 
67 95 
67 103 
67 105 
67 109 
67 115 
67 127 
67 132 
67 135 
67 139 
68 69 
68 70 
68 71 
68 72 
68 74 
68 80 
68 87 
68 92 
68 102 
68 104 
68 116 
68 119 
68 128 
68 130 
68 139 
68 140 
69 70 
69 71 
69 72 
69 79 
69 81 
69 92 
69 93 
69 100 
69 105 
69 117 
69 120 
69 129 
69 131 
69 138 
69 141 
70 71 
70 72 
70 78 
70 82 
70 93 
70 94 
70 106 
70 108 
70 110 
70 118 
70 125 
70 130 
70 136 
70 142 
71 72 
71 81 
71 83 
71 86 
71 95 
71 99 
71 107 
71 115 
71 119 
71 124 
71 131 
71 133 
71 143 
72 83 
72 84 
72 89 
72 96 
72 98 
72 108 
72 112 
72 120 
72 126 
72 132 
72 142 
72 144 
73 74 
73 75 
73 76 
73 77 
73 78 
73 79 
73 80 
73 81 
73 82 
73 83 
73 84 
73 85 
73 94 
73 97 
73 107 
73 109 
73 114 
73 121 
73 129 
73 133 
73 140 
74 75 
74 76 
74 77 
74 78 
74 79 
74 80 
74 81 
74 82 
74 83 
74 84 
74 86 
74 87 
74 98 
74 102 
74 110 
74 119 
74 122 
74 130 
74 134 
74 139 
75 76 
75 77 
75 78 
75 79 
75 80 
75 81 
75 82 
75 83 
75 84 
75 87 
75 91 
75 99 
75 101 
75 111 
75 118 
75 123 
75 128 
75 134 
75 135 
76 77 
76 78 
76 79 
76 80 
76 81 
76 82 
76 83 
76 84 
76 88 
76 96 
76 97 
76 100 
76 112 
76 117 
76 123 
76 124 
76 136 
76 143 
77 78 
77 79 
77 80 
77 81 
77 82 
77 83 
77 84 
77 89 
77 95 
77 101 
77 105 
77 109 
77 113 
77 125 
77 132 
77 135 
77 137 
78 79 
78 80 
78 81 
78 82 
78 83 
78 84 
78 90 
78 93 
78 102 
78 108 
78 110 
78 114 
78 125 
78 126 
78 136 
78 138 
79 80 
79 81 
79 82 
79 83 
79 84 
79 91 
79 92 
79 100 
79 103 
79 115 
79 120 
79 127 
79 131 
79 138 
79 139 
80 81 
80 82 
80 83 
80 84 
80 88 
80 92 
80 103 
80 104 
80 113 
80 116 
80 122 
80 128 
80 140 
80 144 
81 82 
81 83 
81 84 
81 86 
81 93 
81 99 
81 105 
81 115 
81 117 
81 124 
81 129 
81 133 
81 141 
82 83 
82 84 
82 90 
82 94 
82 104 
82 106 
82 111 
82 118 
82 121 
82 130 
82 137 
82 142 
83 84 
83 89 
83 95 
83 98 
83 107 
83 112 
83 119 
83 126 
83 131 
83 142 
83 143 
84 85 
84 96 
84 106 
84 108 
84 116 
84 120 
84 127 
84 132 
84 141 
84 144 
85 86 
85 87 
85 88 
85 89 
85 90 
85 91 
85 92 
85 93 
85 94 
85 95 
85 96 
85 97 
85 106 
85 109 
85 116 
85 121 
85 127 
85 133 
85 141 
86 87 
86 88 
86 89 
86 90 
86 91 
86 92 
86 93 
86 94 
86 95 
86 96 
86 98 
86 99 
86 110 
86 115 
86 122 
86 124 
86 133 
86 134 
87 88 
87 89 
87 90 
87 91 
87 92 
87 93 
87 94 
87 95 
87 96 
87 99 
87 102 
87 111 
87 119 
87 123 
87 130 
87 135 
87 139 
88 89 
88 90 
88 91 
88 92 
88 93 
88 94 
88 95 
88 96 
88 100 
88 103 
88 112 
88 113 
88 122 
88 124 
88 136 
88 144 
89 90 
89 91 
89 92 
89 93 
89 94 
89 95 
89 96 
89 98 
89 101 
89 112 
89 113 
89 125 
89 126 
89 137 
89 142 
90 91 
90 92 
90 93 
90 94 
90 95 
90 96 
90 102 
90 104 
90 111 
90 114 
90 121 
90 126 
90 137 
90 138 
91 92 
91 93 
91 94 
91 95 
91 96 
91 101 
91 103 
91 115 
91 118 
91 127 
91 128 
91 134 
91 139 
92 93 
92 94 
92 95 
92 96 
92 100 
92 104 
92 116 
92 120 
92 128 
92 131 
92 138 
92 140 
93 94 
93 95 
93 96 
93 105 
93 108 
93 110 
93 117 
93 125 
93 129 
93 136 
93 141 
94 95 
94 96 
94 106 
94 107 
94 114 
94 118 
94 129 
94 130 
94 140 
94 142 
95 96 
95 105 
95 107 
95 109 
95 119 
95 131 
95 132 
95 135 
95 143 
96 97 
96 108 
96 117 
96 120 
96 123 
96 132 
96 143 
96 144 
97 98 
97 99 
97 100 
97 101 
97 102 
97 103 
97 104 
97 105 
97 106 
97 107 
97 108 
97 109 
97 117 
97 121 
97 123 
97 133 
97 143 
98 99 
98 100 
98 101 
98 102 
98 103 
98 104 
98 105 
98 106 
98 107 
98 108 
98 110 
98 112 
98 122 
98 126 
98 134 
98 142 
99 100 
99 101 
99 102 
99 103 
99 104 
99 105 
99 106 
99 107 
99 108 
99 111 
99 115 
99 123 
99 124 
99 133 
99 135 
100 101 
100 102 
100 103 
100 104 
100 105 
100 106 
100 107 
100 108 
100 112 
100 120 
100 124 
100 131 
100 136 
100 138 
101 102 
101 103 
101 104 
101 105 
101 106 
101 107 
101 108 
101 113 
101 118 
101 125 
101 128 
101 134 
101 137 
102 103 
102 104 
102 105 
102 106 
102 107 
102 108 
102 114 
102 119 
102 126 
102 130 
102 138 
102 139 
103 104 
103 105 
103 106 
103 107 
103 108 
103 113 
103 115 
103 122 
103 127 
103 139 
103 144 
104 105 
104 106 
104 107 
104 108 
104 111 
104 116 
104 121 
104 128 
104 137 
104 140 
105 106 
105 107 
105 108 
105 109 
105 117 
105 129 
105 132 
105 135 
105 141 
106 107 
106 108 
106 116 
106 118 
106 127 
106 130 
106 141 
106 142 
107 108 
107 114 
107 119 
107 129 
107 131 
107 140 
107 143 
108 110 
108 120 
108 125 
108 132 
108 136 
108 144 
109 110 
109 111 
109 112 
109 113 
109 114 
109 115 
109 116 
109 117 
109 118 
109 119 
109 120 
109 121 
109 132 
109 133 
109 135 
110 111 
110 112 
110 113 
110 114 
110 115 
110 116 
110 117 
110 118 
110 119 
110 120 
110 122 
110 125 
110 134 
110 136 
111 112 
111 113 
111 114 
111 115 
111 116 
111 117 
111 118 
111 119 
111 120 
111 121 
111 123 
111 135 
111 137 
112 113 
112 114 
112 115 
112 116 
112 117 
112 118 
112 119 
112 120 
112 124 
112 126 
112 136 
112 142 
113 114 
113 115 
113 116 
113 117 
113 118 
113 119 
113 120 
113 122 
113 125 
113 137 
113 144 
114 115 
114 116 
114 117 
114 118 
114 119 
114 120 
114 126 
114 129 
114 138 
114 140 
115 116 
115 117 
115 118 
115 119 
115 120 
115 124 
115 127 
115 133 
115 139 
116 117 
116 118 
116 119 
116 120 
116 127 
116 128 
116 140 
116 141 
117 118 
117 119 
117 120 
117 123 
117 129 
117 141 
117 143 
118 119 
118 120 
118 128 
118 130 
118 134 
118 142 
119 120 
119 130 
119 131 
119 139 
119 143 
120 131 
120 132 
120 138 
120 144 
121 122 
121 123 
121 124 
121 125 
121 126 
121 127 
121 128 
121 129 
121 130 
121 131 
121 132 
121 133 
121 137 
122 123 
122 124 
122 125 
122 126 
122 127 
122 128 
122 129 
122 130 
122 131 
122 132 
122 134 
122 144 
123 124 
123 125 
123 126 
123 127 
123 128 
123 129 
123 130 
123 131 
123 132 
123 135 
123 143 
124 125 
124 126 
124 127 
124 128 
124 129 
124 130 
124 131 
124 132 
124 133 
124 136 
125 126 
125 127 
125 128 
125 129 
125 130 
125 131 
125 132 
125 136 
125 137 
126 127 
126 128 
126 129 
126 130 
126 131 
126 132 
126 138 
126 142 
127 128 
127 129 
127 130 
127 131 
127 132 
127 139 
127 141 
128 129 
128 130 
128 131 
128 132 
128 134 
128 140 
129 130 
129 131 
129 132 
129 140 
129 141 
130 131 
130 132 
130 139 
130 142 
131 132 
131 138 
131 143 
132 135 
132 144 
133 134 
133 135 
133 136 
133 137 
133 138 
133 139 
133 140 
133 141 
133 142 
133 143 
133 144 
134 135 
134 136 
134 137 
134 138 
134 139 
134 140 
134 141 
134 142 
134 143 
134 144 
135 136 
135 137 
135 138 
135 139 
135 140 
135 141 
135 142 
135 143 
135 144 
136 137 
136 138 
136 139 
136 140 
136 141 
136 142 
136 143 
136 144 
137 138 
137 139 
137 140 
137 141 
137 142 
137 143 
137 144 
138 139 
138 140 
138 141 
138 142 
138 143 
138 144 
139 140 
139 141 
139 142 
139 143 
139 144 
140 141 
140 142 
140 143 
140 144 
141 142 
141 143 
141 144 
142 143 
142 144 
143 144 
